p cnf 73 439
-1 -2 0
-1 -3 0
-1 -4 0
-2 -3 0
-2 -4 0
-3 -4 0
1 2 3 4 0
-5 -6 0
-5 -7 0
-5 -8 0
-5 -9 0
-6 -7 0
-6 -8 0
-6 -9 0
-7 -8 0
-7 -9 0
-8 -9 0
5 6 7 8 9 0
-10 -11 0
-10 -12 0
-10 -13 0
-10 -14 0
-10 -15 0
-10 -16 0
-11 -12 0
-11 -13 0
-11 -14 0
-11 -15 0
-11 -16 0
-12 -13 0
-12 -14 0
-12 -15 0
-12 -16 0
-13 -14 0
-13 -15 0
-13 -16 0
-14 -15 0
-14 -16 0
-15 -16 0
10 11 12 13 14 15 16 0
-5 -10 0
-5 -17 0
-5 -18 0
-5 -19 0
-10 -17 0
-10 -18 0
-10 -19 0
-17 -18 0
-17 -19 0
-18 -19 0
5 10 17 18 19 0
-17 -20 0
17 20 0
-6 -11 0
-6 -20 0
-6 -21 0
-6 -22 0
-6 -23 0
-11 -20 0
-11 -21 0
-11 -22 0
-11 -23 0
-20 -21 0
-20 -22 0
-20 -23 0
-21 -22 0
-21 -23 0
-22 -23 0
6 11 20 21 22 23 0
-1 -24 0
-1 -25 0
-1 -26 0
-1 -27 0
-1 -28 0
-1 -29 0
-24 -25 0
-24 -26 0
-24 -27 0
-24 -28 0
-24 -29 0
-25 -26 0
-25 -27 0
-25 -28 0
-25 -29 0
-26 -27 0
-26 -28 0
-26 -29 0
-27 -28 0
-27 -29 0
-28 -29 0
1 24 25 26 27 28 29 0
-21 -24 0
-21 -30 0
-21 -31 0
-21 -32 0
-21 -33 0
-21 -34 0
-24 -30 0
-24 -31 0
-24 -32 0
-24 -33 0
-24 -34 0
-30 -31 0
-30 -32 0
-30 -33 0
-30 -34 0
-31 -32 0
-31 -33 0
-31 -34 0
-32 -33 0
-32 -34 0
-33 -34 0
21 24 30 31 32 33 34 0
-2 -12 0
-2 -22 0
-2 -35 0
-2 -36 0
-2 -37 0
-12 -22 0
-12 -35 0
-12 -36 0
-12 -37 0
-22 -35 0
-22 -36 0
-22 -37 0
-35 -36 0
-35 -37 0
-36 -37 0
2 12 22 35 36 37 0
-23 -25 0
-23 -38 0
-23 -39 0
-23 -40 0
-25 -38 0
-25 -39 0
-25 -40 0
-38 -39 0
-38 -40 0
-39 -40 0
23 25 38 39 40 0
-30 -41 0
-30 -42 0
-30 -43 0
-30 -44 0
-30 -45 0
-30 -46 0
-41 -42 0
-41 -43 0
-41 -44 0
-41 -45 0
-41 -46 0
-42 -43 0
-42 -44 0
-42 -45 0
-42 -46 0
-43 -44 0
-43 -45 0
-43 -46 0
-44 -45 0
-44 -46 0
-45 -46 0
30 41 42 43 44 45 46 0
-31 -38 0
-31 -47 0
-31 -48 0
-31 -49 0
-38 -47 0
-38 -48 0
-38 -49 0
-47 -48 0
-47 -49 0
-48 -49 0
31 38 47 48 49 0
-7 -18 0
-7 -26 0
-7 -39 0
-7 -41 0
-7 -50 0
-7 -51 0
-7 -52 0
-7 -53 0
-18 -26 0
-18 -39 0
-18 -41 0
-18 -50 0
-18 -51 0
-18 -52 0
-18 -53 0
-26 -39 0
-26 -41 0
-26 -50 0
-26 -51 0
-26 -52 0
-26 -53 0
-39 -41 0
-39 -50 0
-39 -51 0
-39 -52 0
-39 -53 0
-41 -50 0
-41 -51 0
-41 -52 0
-41 -53 0
-50 -51 0
-50 -52 0
-50 -53 0
-51 -52 0
-51 -53 0
-52 -53 0
7 18 26 39 41 50 51 52 53 0
-13 -42 0
-13 -54 0
-13 -55 0
-13 -56 0
-42 -54 0
-42 -55 0
-42 -56 0
-54 -55 0
-54 -56 0
-55 -56 0
13 42 54 55 56 0
-14 -19 0
-14 -47 0
-14 -57 0
-14 -58 0
-14 -59 0
-14 -60 0
-19 -47 0
-19 -57 0
-19 -58 0
-19 -59 0
-19 -60 0
-47 -57 0
-47 -58 0
-47 -59 0
-47 -60 0
-57 -58 0
-57 -59 0
-57 -60 0
-58 -59 0
-58 -60 0
-59 -60 0
14 19 47 57 58 59 60 0
-8 -15 0
-8 -61 0
-8 -62 0
-15 -61 0
-15 -62 0
-61 -62 0
8 15 61 62 0
-9 -27 0
-9 -32 0
-9 -43 0
-9 -50 0
-9 -63 0
-9 -64 0
-27 -32 0
-27 -43 0
-27 -50 0
-27 -63 0
-27 -64 0
-32 -43 0
-32 -50 0
-32 -63 0
-32 -64 0
-43 -50 0
-43 -63 0
-43 -64 0
-50 -63 0
-50 -64 0
-63 -64 0
9 27 32 43 50 63 64 0
-33 -44 0
-33 -51 0
-33 -54 0
-33 -57 0
-33 -61 0
-33 -65 0
-33 -66 0
-33 -67 0
-44 -51 0
-44 -54 0
-44 -57 0
-44 -61 0
-44 -65 0
-44 -66 0
-44 -67 0
-51 -54 0
-51 -57 0
-51 -61 0
-51 -65 0
-51 -66 0
-51 -67 0
-54 -57 0
-54 -61 0
-54 -65 0
-54 -66 0
-54 -67 0
-57 -61 0
-57 -65 0
-57 -66 0
-57 -67 0
-61 -65 0
-61 -66 0
-61 -67 0
-65 -66 0
-65 -67 0
-66 -67 0
33 44 51 54 57 61 65 66 67 0
-48 -58 0
-48 -65 0
-48 -68 0
-48 -69 0
-58 -65 0
-58 -68 0
-58 -69 0
-65 -68 0
-65 -69 0
-68 -69 0
48 58 65 68 69 0
-16 -35 0
-16 -52 0
-16 -55 0
-16 -59 0
-16 -66 0
-16 -70 0
-16 -71 0
-35 -52 0
-35 -55 0
-35 -59 0
-35 -66 0
-35 -70 0
-35 -71 0
-52 -55 0
-52 -59 0
-52 -66 0
-52 -70 0
-52 -71 0
-55 -59 0
-55 -66 0
-55 -70 0
-55 -71 0
-59 -66 0
-59 -70 0
-59 -71 0
-66 -70 0
-66 -71 0
-70 -71 0
16 35 52 55 59 66 70 71 0
-36 -49 0
-36 -60 0
-36 -67 0
-36 -68 0
-36 -70 0
-49 -60 0
-49 -67 0
-49 -68 0
-49 -70 0
-60 -67 0
-60 -68 0
-60 -70 0
-67 -68 0
-67 -70 0
-68 -70 0
36 49 60 67 68 70 0
-28 -45 0
-28 -63 0
-28 -72 0
-45 -63 0
-45 -72 0
-63 -72 0
28 45 63 72 0
-3 -29 0
-3 -34 0
-3 -37 0
-3 -40 0
-3 -56 0
-3 -62 0
-3 -64 0
-3 -69 0
-3 -71 0
-3 -73 0
-29 -34 0
-29 -37 0
-29 -40 0
-29 -56 0
-29 -62 0
-29 -64 0
-29 -69 0
-29 -71 0
-29 -73 0
-34 -37 0
-34 -40 0
-34 -56 0
-34 -62 0
-34 -64 0
-34 -69 0
-34 -71 0
-34 -73 0
-37 -40 0
-37 -56 0
-37 -62 0
-37 -64 0
-37 -69 0
-37 -71 0
-37 -73 0
-40 -56 0
-40 -62 0
-40 -64 0
-40 -69 0
-40 -71 0
-40 -73 0
-56 -62 0
-56 -64 0
-56 -69 0
-56 -71 0
-56 -73 0
-62 -64 0
-62 -69 0
-62 -71 0
-62 -73 0
-64 -69 0
-64 -71 0
-64 -73 0
-69 -71 0
-69 -73 0
-71 -73 0
3 29 34 37 40 56 62 64 69 71 73 0
-4 -46 0
-4 -53 0
-4 -72 0
-4 -73 0
-46 -53 0
-46 -72 0
-46 -73 0
-53 -72 0
-53 -73 0
-72 -73 0
4 46 53 72 73 0
